p cnf 84 560
1 2 3 4 5 6 0
7 8 9 10 11 12 0
13 14 15 16 17 18 0
19 20 21 22 23 24 0
25 26 27 28 29 30 0
31 32 33 34 35 36 0
37 38 39 40 41 42 0
43 44 45 46 47 48 0
49 50 51 52 53 54 0
55 56 57 58 59 60 0
61 62 63 64 65 66 0
67 68 69 70 71 72 0
73 74 75 76 77 78 0
79 80 81 82 83 84 0
-1 -7 0
-1 -13 0
-1 -19 0
-1 -25 0
-1 -31 0
-1 -37 0
-1 -43 0
-1 -49 0
-1 -55 0
-1 -61 0
-1 -67 0
-1 -73 0
-1 -79 0
-7 -13 0
-7 -19 0
-7 -25 0
-7 -31 0
-7 -37 0
-7 -43 0
-7 -49 0
-7 -55 0
-7 -61 0
-7 -67 0
-7 -73 0
-7 -79 0
-13 -19 0
-13 -25 0
-13 -31 0
-13 -37 0
-13 -43 0
-13 -49 0
-13 -55 0
-13 -61 0
-13 -67 0
-13 -73 0
-13 -79 0
-19 -25 0
-19 -31 0
-19 -37 0
-19 -43 0
-19 -49 0
-19 -55 0
-19 -61 0
-19 -67 0
-19 -73 0
-19 -79 0
-25 -31 0
-25 -37 0
-25 -43 0
-25 -49 0
-25 -55 0
-25 -61 0
-25 -67 0
-25 -73 0
-25 -79 0
-31 -37 0
-31 -43 0
-31 -49 0
-31 -55 0
-31 -61 0
-31 -67 0
-31 -73 0
-31 -79 0
-37 -43 0
-37 -49 0
-37 -55 0
-37 -61 0
-37 -67 0
-37 -73 0
-37 -79 0
-43 -49 0
-43 -55 0
-43 -61 0
-43 -67 0
-43 -73 0
-43 -79 0
-49 -55 0
-49 -61 0
-49 -67 0
-49 -73 0
-49 -79 0
-55 -61 0
-55 -67 0
-55 -73 0
-55 -79 0
-61 -67 0
-61 -73 0
-61 -79 0
-67 -73 0
-67 -79 0
-73 -79 0
-2 -8 0
-2 -14 0
-2 -20 0
-2 -26 0
-2 -32 0
-2 -38 0
-2 -44 0
-2 -50 0
-2 -56 0
-2 -62 0
-2 -68 0
-2 -74 0
-2 -80 0
-8 -14 0
-8 -20 0
-8 -26 0
-8 -32 0
-8 -38 0
-8 -44 0
-8 -50 0
-8 -56 0
-8 -62 0
-8 -68 0
-8 -74 0
-8 -80 0
-14 -20 0
-14 -26 0
-14 -32 0
-14 -38 0
-14 -44 0
-14 -50 0
-14 -56 0
-14 -62 0
-14 -68 0
-14 -74 0
-14 -80 0
-20 -26 0
-20 -32 0
-20 -38 0
-20 -44 0
-20 -50 0
-20 -56 0
-20 -62 0
-20 -68 0
-20 -74 0
-20 -80 0
-26 -32 0
-26 -38 0
-26 -44 0
-26 -50 0
-26 -56 0
-26 -62 0
-26 -68 0
-26 -74 0
-26 -80 0
-32 -38 0
-32 -44 0
-32 -50 0
-32 -56 0
-32 -62 0
-32 -68 0
-32 -74 0
-32 -80 0
-38 -44 0
-38 -50 0
-38 -56 0
-38 -62 0
-38 -68 0
-38 -74 0
-38 -80 0
-44 -50 0
-44 -56 0
-44 -62 0
-44 -68 0
-44 -74 0
-44 -80 0
-50 -56 0
-50 -62 0
-50 -68 0
-50 -74 0
-50 -80 0
-56 -62 0
-56 -68 0
-56 -74 0
-56 -80 0
-62 -68 0
-62 -74 0
-62 -80 0
-68 -74 0
-68 -80 0
-74 -80 0
-3 -9 0
-3 -15 0
-3 -21 0
-3 -27 0
-3 -33 0
-3 -39 0
-3 -45 0
-3 -51 0
-3 -57 0
-3 -63 0
-3 -69 0
-3 -75 0
-3 -81 0
-9 -15 0
-9 -21 0
-9 -27 0
-9 -33 0
-9 -39 0
-9 -45 0
-9 -51 0
-9 -57 0
-9 -63 0
-9 -69 0
-9 -75 0
-9 -81 0
-15 -21 0
-15 -27 0
-15 -33 0
-15 -39 0
-15 -45 0
-15 -51 0
-15 -57 0
-15 -63 0
-15 -69 0
-15 -75 0
-15 -81 0
-21 -27 0
-21 -33 0
-21 -39 0
-21 -45 0
-21 -51 0
-21 -57 0
-21 -63 0
-21 -69 0
-21 -75 0
-21 -81 0
-27 -33 0
-27 -39 0
-27 -45 0
-27 -51 0
-27 -57 0
-27 -63 0
-27 -69 0
-27 -75 0
-27 -81 0
-33 -39 0
-33 -45 0
-33 -51 0
-33 -57 0
-33 -63 0
-33 -69 0
-33 -75 0
-33 -81 0
-39 -45 0
-39 -51 0
-39 -57 0
-39 -63 0
-39 -69 0
-39 -75 0
-39 -81 0
-45 -51 0
-45 -57 0
-45 -63 0
-45 -69 0
-45 -75 0
-45 -81 0
-51 -57 0
-51 -63 0
-51 -69 0
-51 -75 0
-51 -81 0
-57 -63 0
-57 -69 0
-57 -75 0
-57 -81 0
-63 -69 0
-63 -75 0
-63 -81 0
-69 -75 0
-69 -81 0
-75 -81 0
-4 -10 0
-4 -16 0
-4 -22 0
-4 -28 0
-4 -34 0
-4 -40 0
-4 -46 0
-4 -52 0
-4 -58 0
-4 -64 0
-4 -70 0
-4 -76 0
-4 -82 0
-10 -16 0
-10 -22 0
-10 -28 0
-10 -34 0
-10 -40 0
-10 -46 0
-10 -52 0
-10 -58 0
-10 -64 0
-10 -70 0
-10 -76 0
-10 -82 0
-16 -22 0
-16 -28 0
-16 -34 0
-16 -40 0
-16 -46 0
-16 -52 0
-16 -58 0
-16 -64 0
-16 -70 0
-16 -76 0
-16 -82 0
-22 -28 0
-22 -34 0
-22 -40 0
-22 -46 0
-22 -52 0
-22 -58 0
-22 -64 0
-22 -70 0
-22 -76 0
-22 -82 0
-28 -34 0
-28 -40 0
-28 -46 0
-28 -52 0
-28 -58 0
-28 -64 0
-28 -70 0
-28 -76 0
-28 -82 0
-34 -40 0
-34 -46 0
-34 -52 0
-34 -58 0
-34 -64 0
-34 -70 0
-34 -76 0
-34 -82 0
-40 -46 0
-40 -52 0
-40 -58 0
-40 -64 0
-40 -70 0
-40 -76 0
-40 -82 0
-46 -52 0
-46 -58 0
-46 -64 0
-46 -70 0
-46 -76 0
-46 -82 0
-52 -58 0
-52 -64 0
-52 -70 0
-52 -76 0
-52 -82 0
-58 -64 0
-58 -70 0
-58 -76 0
-58 -82 0
-64 -70 0
-64 -76 0
-64 -82 0
-70 -76 0
-70 -82 0
-76 -82 0
-5 -11 0
-5 -17 0
-5 -23 0
-5 -29 0
-5 -35 0
-5 -41 0
-5 -47 0
-5 -53 0
-5 -59 0
-5 -65 0
-5 -71 0
-5 -77 0
-5 -83 0
-11 -17 0
-11 -23 0
-11 -29 0
-11 -35 0
-11 -41 0
-11 -47 0
-11 -53 0
-11 -59 0
-11 -65 0
-11 -71 0
-11 -77 0
-11 -83 0
-17 -23 0
-17 -29 0
-17 -35 0
-17 -41 0
-17 -47 0
-17 -53 0
-17 -59 0
-17 -65 0
-17 -71 0
-17 -77 0
-17 -83 0
-23 -29 0
-23 -35 0
-23 -41 0
-23 -47 0
-23 -53 0
-23 -59 0
-23 -65 0
-23 -71 0
-23 -77 0
-23 -83 0
-29 -35 0
-29 -41 0
-29 -47 0
-29 -53 0
-29 -59 0
-29 -65 0
-29 -71 0
-29 -77 0
-29 -83 0
-35 -41 0
-35 -47 0
-35 -53 0
-35 -59 0
-35 -65 0
-35 -71 0
-35 -77 0
-35 -83 0
-41 -47 0
-41 -53 0
-41 -59 0
-41 -65 0
-41 -71 0
-41 -77 0
-41 -83 0
-47 -53 0
-47 -59 0
-47 -65 0
-47 -71 0
-47 -77 0
-47 -83 0
-53 -59 0
-53 -65 0
-53 -71 0
-53 -77 0
-53 -83 0
-59 -65 0
-59 -71 0
-59 -77 0
-59 -83 0
-65 -71 0
-65 -77 0
-65 -83 0
-71 -77 0
-71 -83 0
-77 -83 0
-6 -12 0
-6 -18 0
-6 -24 0
-6 -30 0
-6 -36 0
-6 -42 0
-6 -48 0
-6 -54 0
-6 -60 0
-6 -66 0
-6 -72 0
-6 -78 0
-6 -84 0
-12 -18 0
-12 -24 0
-12 -30 0
-12 -36 0
-12 -42 0
-12 -48 0
-12 -54 0
-12 -60 0
-12 -66 0
-12 -72 0
-12 -78 0
-12 -84 0
-18 -24 0
-18 -30 0
-18 -36 0
-18 -42 0
-18 -48 0
-18 -54 0
-18 -60 0
-18 -66 0
-18 -72 0
-18 -78 0
-18 -84 0
-24 -30 0
-24 -36 0
-24 -42 0
-24 -48 0
-24 -54 0
-24 -60 0
-24 -66 0
-24 -72 0
-24 -78 0
-24 -84 0
-30 -36 0
-30 -42 0
-30 -48 0
-30 -54 0
-30 -60 0
-30 -66 0
-30 -72 0
-30 -78 0
-30 -84 0
-36 -42 0
-36 -48 0
-36 -54 0
-36 -60 0
-36 -66 0
-36 -72 0
-36 -78 0
-36 -84 0
-42 -48 0
-42 -54 0
-42 -60 0
-42 -66 0
-42 -72 0
-42 -78 0
-42 -84 0
-48 -54 0
-48 -60 0
-48 -66 0
-48 -72 0
-48 -78 0
-48 -84 0
-54 -60 0
-54 -66 0
-54 -72 0
-54 -78 0
-54 -84 0
-60 -66 0
-60 -72 0
-60 -78 0
-60 -84 0
-66 -72 0
-66 -78 0
-66 -84 0
-72 -78 0
-72 -84 0
-78 -84 0
